Global Parameters
ISTART =  0            (Read existing wavefunction; if there)
ISPIN  =  1            (Non-Spin polarised DFT)
# ICHARG =  11         (Non-self-consistent: GGA/LDA band structures)
LREAL  = AUTO       (Projection operators: automatic)
ENCUT  =  500        (Cut-off energy for plane wave basis set, in eV)
PREC   =  Accurate       (Precision level)
LWAVE  = .FALSE.        (Write WAVECAR or not)
LCHARG = .FALSE.        (Write CHGCAR or not)
ADDGRID= .TRUE.        (Increase grid; helps GGA convergence)
# LVTOT  = .TRUE.      (Write total electrostatic potential into LOCPOT or not)
# LVHAR  = .TRUE.      (Write ionic + Hartree electrostatic potential into LOCPOT or not)
# NELECT =             (No. of electrons: charged cells; be careful)
# LPLANE = .TRUE.      (Real space distribution; supercells)
# NPAR   = 4           (Max is no. nodes; don't set for hybrids)
# Nwrite = 2           (Medium-level output)
# KPAR   = 2           (Divides k-grid into separate groups)
#NGX    = 500         (FFT grid mesh density for nice charge/potential plots)
#NGY    = 500         (FFT grid mesh density for nice charge/potential plots)
#NGZ    = 500         (FFT grid mesh density for nice charge/potential plots)
NCORE = 4


Lattice Relaxation
NSW    =  300          (number of ionic steps)
ISMEAR =  0            (gaussian smearing method )
SIGMA  =  0.05         (please check the width of the smearing)
IBRION =  2            (Algorithm: 0-MD; 1-Quasi-New; 2-CG)
ISIF   =  2        (optimize atomic coordinates and lattice parameters)
EDIFFG = -0.01      (Ionic convergence; eV/AA)
EDIFF  =  1E-06        (SCF energy convergence; in eV)
PREC   =  Normal     (Precision level)
ISYM = 0

DFT-D3 Correction
IVDW   =  11           (DFT-D3 method of method with no damping)
